* ENCODING=ISO-8859-1
NAME          CPLEX
ROWS
 N  obj1    
 G  c1      
 G  c2      
 G  c3      
 G  c4      
 G  c5      
 G  c6      
 G  c7      
 G  c8      
 G  c9      
 G  c10     
 G  c11     
 G  c12     
 G  c13     
 G  c14     
 G  c15     
 G  c16     
 G  c17     
 G  c18     
 G  c19     
 G  c20     
 G  c21     
 G  c22     
 G  c23     
 G  c24     
 G  c25     
 G  c26     
 G  c27     
 G  c28     
 G  c29     
 G  c30     
 G  c31     
 G  c32     
 G  c33     
 G  c34     
 G  c35     
 G  c36     
 G  c37     
 G  c38     
 G  c39     
 G  c40     
 G  c41     
 G  c42     
 G  c43     
 G  c44     
 G  c45     
 G  c46     
 G  c47     
 G  c48     
 G  c49     
 G  c50     
 G  c51     
 G  c52     
 G  c53     
 G  c54     
 G  c55     
 G  c56     
 G  c57     
 G  c58     
 G  c59     
 G  c60     
 G  c61     
 G  c62     
 G  c63     
 G  c64     
 G  c65     
 G  c66     
 G  c67     
 G  c68     
 G  c69     
 G  c70     
COLUMNS
    MARK0000  'MARKER'                 'INTORG'
    x1        obj1                            1
    x1        c4                            520
    x1        c10                           495
    x1        c21                           158
    x1        c25                           715
    x1        c40                           117
    x1        c48                           566
    x1        c54                           896
    x2        obj1                            1
    x2        c17                           316
    x2        c21                           406
    x2        c27                           518
    x2        c28                           859
    x2        c29                           785
    x2        c30                           684
    x2        c34                           856
    x2        c47                           617
    x2        c66                           726
    x2        c68                           653
    x3        obj1                            1
    x3        c1                            968
    x3        c7                            499
    x3        c15                           331
    x3        c26                           706
    x3        c34                           457
    x3        c35                           826
    x3        c46                           615
    x3        c47                           761
    x3        c65                           721
    x4        obj1                            1
    x4        c9                            869
    x4        c16                           696
    x4        c23                           742
    x4        c38                           891
    x4        c40                           869
    x4        c44                           272
    x5        obj1                            1
    x5        c8                            921
    x5        c30                           305
    x5        c33                           979
    x5        c49                           843
    x5        c63                           742
    x6        obj1                            1
    x6        c9                            812
    x6        c10                           170
    x6        c20                           325
    x6        c37                           957
    x6        c46                           224
    x6        c59                           342
    x6        c69                           633
    x7        obj1                            1
    x7        c2                            228
    x7        c11                           349
    x7        c14                           176
    x7        c43                           207
    x7        c52                           521
    x8        obj1                            1
    x8        c10                           792
    x8        c23                           865
    x8        c51                           820
    x8        c67                           809
    x9        obj1                            1
    x9        c32                           736
    x9        c38                           986
    x9        c49                           187
    x9        c54                           797
    x9        c56                           337
    x10       obj1                            1
    x10       c26                           396
    x10       c59                           598
    x10       c65                           643
    x10       c69                           893
    x11       obj1                            1
    x11       c6                            599
    x11       c8                            311
    x11       c20                           611
    x11       c32                           309
    x11       c37                           458
    x11       c41                           726
    x11       c44                           896
    x11       c51                           791
    x11       c60                           597
    x11       c64                           440
    x12       obj1                            1
    x12       c8                            885
    x12       c20                           207
    x12       c37                           719
    x12       c46                           887
    x12       c48                           728
    x12       c50                           760
    x12       c53                           448
    x12       c60                           340
    x13       obj1                            1
    x13       c14                           315
    x13       c17                           369
    x13       c32                           897
    x13       c41                           896
    x13       c61                           612
    x13       c63                           928
    x14       obj1                            1
    x14       c12                           728
    x14       c31                           956
    x14       c38                           254
    x14       c40                           332
    x14       c41                           759
    x14       c53                           904
    x14       c58                           236
    x15       obj1                            1
    x15       c6                            324
    x15       c10                           913
    x15       c23                           503
    x15       c57                           371
    x16       obj1                            1
    x16       c24                           583
    x16       c27                           659
    x17       obj1                            1
    x17       c9                            125
    x17       c16                           612
    x17       c17                           865
    x17       c22                           544
    x17       c24                           729
    x17       c36                           732
    x17       c62                           741
    x17       c68                           563
    x18       obj1                            1
    x18       c9                            935
    x18       c19                           338
    x18       c23                           897
    x18       c27                           954
    x18       c29                           720
    x18       c39                           289
    x18       c44                           540
    x18       c48                           804
    x18       c51                           399
    x18       c54                           534
    x18       c61                           962
    x18       c65                           679
    x18       c66                           216
    x19       obj1                            1
    x19       c1                            364
    x19       c2                            881
    x19       c16                           614
    x19       c24                           740
    x19       c36                           713
    x20       obj1                            1
    x20       c28                           294
    x20       c30                           280
    x20       c40                           959
    x20       c55                           984
    x20       c57                           845
    x21       obj1                            1
    x21       c4                            452
    x21       c7                            310
    x21       c8                            323
    x21       c10                           830
    x21       c21                           623
    x21       c25                           692
    x21       c27                           806
    x21       c38                           255
    x21       c44                           864
    x21       c52                           325
    x21       c59                           399
    x22       obj1                            1
    x22       c8                            615
    x22       c9                            350
    x22       c30                           928
    x22       c48                           436
    x22       c65                           882
    x22       c67                           440
    x23       obj1                            1
    x23       c7                            388
    x23       c23                           398
    x23       c33                           937
    x23       c46                           596
    x23       c63                           324
    x24       obj1                            1
    x24       c2                            717
    x24       c24                           326
    x24       c29                           469
    x24       c42                           912
    x24       c66                           351
    x25       obj1                            1
    x25       c11                           152
    x25       c26                           805
    x25       c39                           868
    x25       c70                           710
    x26       obj1                            1
    x26       c19                           420
    x26       c30                           174
    x26       c38                           483
    x26       c43                           611
    x26       c47                           241
    x26       c51                           864
    x26       c70                           895
    x27       obj1                            1
    x27       c13                           652
    x27       c38                           282
    x27       c47                           184
    x27       c67                           784
    x27       c70                           269
    x28       obj1                            1
    x28       c4                            423
    x28       c11                           309
    x28       c13                           274
    x28       c36                           234
    x28       c40                           697
    x28       c49                           799
    x28       c52                           190
    x29       obj1                            1
    x29       c5                            522
    x29       c19                           604
    x29       c38                           646
    x29       c45                           515
    x29       c64                           519
    x30       obj1                            1
    x30       c29                           693
    x30       c32                           595
    x30       c35                           375
    x30       c44                           538
    x30       c45                           569
    x30       c56                           497
    x30       c57                           953
    x31       obj1                            1
    x31       c6                            955
    x31       c14                           446
    x31       c16                           774
    x31       c43                           115
    x31       c62                           351
    x31       c64                           500
    x31       c65                           232
    x31       c68                           953
    x32       obj1                            1
    x32       c2                            335
    x32       c5                            370
    x32       c8                            531
    x32       c15                           704
    x32       c21                           720
    x32       c23                           603
    x32       c27                           132
    x32       c36                           898
    x32       c49                           812
    x33       obj1                            1
    x33       c7                            229
    x33       c14                           988
    x33       c18                           784
    x33       c19                           851
    x33       c29                           292
    x33       c36                           877
    x33       c37                           263
    x33       c43                           525
    x33       c45                           643
    x33       c68                           372
    x34       obj1                            1
    x34       c8                            742
    x34       c24                           653
    x34       c27                           576
    x34       c28                           158
    x34       c58                           996
    x34       c66                           872
    x35       obj1                            1
    x35       c12                           208
    x35       c21                           471
    x35       c27                           443
    x35       c37                           391
    x35       c42                           370
    x35       c59                           131
    x35       c61                           546
    x35       c64                           555
    x35       c67                           416
    x35       c70                           284
    x36       obj1                            1
    x36       c12                           697
    x36       c15                           485
    x36       c18                           499
    x36       c28                           504
    x36       c33                           670
    x36       c36                           504
    x36       c57                           452
    x36       c70                           737
    x37       obj1                            1
    x37       c6                            685
    x37       c13                           293
    x37       c14                           229
    x37       c32                           885
    x37       c42                           337
    x37       c46                           305
    x37       c51                           734
    x37       c55                           673
    x37       c61                           637
    x38       obj1                            1
    x38       c8                            807
    x38       c29                           361
    x38       c55                           709
    x38       c58                           187
    x38       c60                           661
    x39       obj1                            1
    x39       c1                            141
    x39       c3                            371
    x39       c4                            656
    x39       c15                           439
    x39       c18                           114
    x39       c28                           843
    x39       c42                           210
    x39       c43                           473
    x39       c45                           505
    x39       c53                           554
    x39       c55                           726
    x39       c59                           543
    x39       c67                           355
    x40       obj1                            1
    x40       c2                            989
    x40       c7                            147
    x40       c11                           328
    x40       c27                           130
    x40       c39                           907
    x40       c42                           173
    x40       c43                           984
    x40       c46                           507
    x40       c50                           292
    x40       c67                           159
    x40       c68                           492
    x40       c69                           625
    x41       obj1                            1
    x41       c41                           998
    x41       c55                           814
    x41       c60                           634
    x41       c64                           967
    x41       c70                           196
    x42       obj1                            1
    x42       c1                            471
    x42       c3                            297
    x42       c26                           187
    x42       c31                           974
    x42       c34                           834
    x42       c37                           413
    x42       c53                           400
    x42       c57                           876
    x42       c61                           956
    x42       c65                           657
    x42       c66                           698
    x43       obj1                            1
    x43       c13                           212
    x43       c14                           640
    x43       c26                           737
    x43       c31                           482
    x43       c32                           159
    x43       c34                           969
    x43       c35                           757
    x43       c36                           375
    x43       c41                           890
    x43       c57                           111
    x44       obj1                            1
    x44       c16                           860
    x44       c24                           107
    x44       c28                           776
    x44       c29                           972
    x44       c31                           453
    x44       c43                           146
    x44       c49                           705
    x44       c65                           320
    x45       obj1                            1
    x45       c5                            771
    x45       c17                           713
    x45       c22                           430
    x45       c30                           430
    x45       c34                           802
    x45       c43                           161
    x45       c48                           390
    x45       c56                           689
    x45       c60                           708
    x45       c67                           543
    x46       obj1                            1
    x46       c6                            471
    x46       c13                           628
    x46       c14                           808
    x46       c16                           414
    x46       c19                           557
    x46       c23                           891
    x46       c47                           592
    x46       c70                           574
    x47       obj1                            1
    x47       c15                           191
    x47       c43                           289
    x47       c54                           576
    x48       obj1                            1
    x48       c14                           202
    x48       c18                           650
    x48       c23                           774
    x48       c24                           499
    x48       c34                           579
    x48       c41                           595
    x48       c57                           451
    x48       c67                           364
    x48       c70                           882
    x49       obj1                            1
    x49       c3                            427
    x49       c9                            566
    x49       c15                           673
    x49       c22                           791
    x49       c37                           357
    x49       c42                           702
    x49       c49                           114
    x49       c53                           585
    x49       c57                           721
    x49       c62                           425
    x49       c68                           259
    x49       c70                           567
    x50       obj1                            1
    x50       c7                            561
    x50       c37                           185
    x50       c45                           274
    x50       c46                           769
    x50       c55                           207
    x51       obj1                            1
    x51       c7                            698
    x51       c50                           961
    x51       c58                           255
    x51       c69                           399
    x52       obj1                            1
    x52       c34                           978
    x52       c40                           650
    x52       c42                           524
    x52       c51                           288
    x52       c52                           874
    x52       c60                           847
    x52       c67                           470
    x52       c68                          1000
    x53       obj1                            1
    x53       c1                            464
    x53       c2                            532
    x53       c5                            112
    x53       c34                           642
    x53       c39                           172
    x53       c45                           974
    x53       c61                           659
    x54       obj1                            1
    x54       c1                            663
    x54       c41                           852
    x54       c46                           506
    x54       c47                           704
    x54       c53                           925
    x54       c58                           291
    x54       c62                           646
    x54       c69                           774
    x55       obj1                            1
    x55       c5                            730
    x55       c8                            963
    x55       c9                            586
    x55       c10                           648
    x55       c11                           777
    x55       c24                           634
    x55       c33                           401
    x55       c36                           122
    x55       c57                           280
    x55       c59                           504
    x55       c69                           148
    x56       obj1                            1
    x56       c11                           808
    x56       c13                           779
    x56       c20                           241
    x56       c33                           343
    x56       c47                           272
    x56       c51                           367
    x57       obj1                            1
    x57       c1                            446
    x57       c8                            317
    x57       c10                           880
    x57       c15                           338
    x57       c21                           350
    x57       c24                           572
    x57       c29                           815
    x57       c35                           123
    x57       c40                           711
    x57       c41                           474
    x57       c50                           416
    x57       c57                           772
    x57       c64                           991
    x57       c66                           125
    x58       obj1                            1
    x58       c4                            762
    x58       c10                           831
    x58       c16                           813
    x58       c51                           523
    x58       c60                           774
    x58       c67                           401
    x59       obj1                            1
    x59       c4                            448
    x59       c15                           362
    x59       c19                           579
    x59       c38                           999
    x59       c39                           351
    x59       c60                           296
    x60       obj1                            1
    x60       c17                           461
    x60       c23                           319
    x60       c62                           194
    x60       c63                           202
    x60       c68                           586
    x61       obj1                            1
    x61       c1                            138
    x61       c27                           994
    x61       c30                           928
    x61       c32                           456
    x61       c42                           816
    x61       c54                           552
    x61       c69                           341
    x62       obj1                            1
    x62       c7                            967
    x62       c16                           587
    x62       c42                           743
    x62       c44                           184
    x62       c70                           287
    x63       obj1                            1
    x63       c1                            554
    x63       c2                            508
    x63       c7                            796
    x63       c13                           229
    x63       c25                           994
    x63       c30                           657
    x63       c56                           289
    x63       c62                           816
    x64       obj1                            1
    x64       c4                            949
    x64       c7                            969
    x64       c9                            768
    x64       c10                           502
    x64       c14                           373
    x64       c22                           156
    x64       c29                           624
    x64       c37                           922
    x64       c47                           410
    x64       c52                           481
    x65       obj1                            1
    x65       c1                            507
    x65       c2                            274
    x65       c11                           642
    x65       c26                           293
    x65       c29                           283
    x65       c30                           329
    x65       c47                           481
    x65       c58                           347
    x65       c61                           530
    x66       obj1                            1
    x66       c12                           271
    x66       c22                           945
    x66       c25                           231
    x66       c45                           770
    x66       c50                           862
    x67       obj1                            1
    x67       c3                            305
    x67       c12                           174
    x67       c25                           972
    x67       c51                           429
    x67       c61                           449
    x68       obj1                            1
    x68       c11                           221
    x68       c15                           859
    x68       c42                           915
    x68       c44                           532
    x69       obj1                            1
    x69       c11                           954
    x69       c14                           847
    x69       c16                           831
    x69       c23                           132
    x69       c27                           679
    x69       c38                           226
    x69       c47                           807
    x69       c61                           968
    x70       obj1                            1
    x70       c13                           504
    x70       c22                           446
    x70       c41                           650
    x70       c43                           523
    x70       c49                           802
    MARK0001  'MARKER'                 'INTEND'
RHS
    rhs       c1                           2358
    rhs       c2                           2232
    rhs       c3                            700
    rhs       c4                           2105
    rhs       c5                           1253
    rhs       c6                           1517
    rhs       c7                           2782
    rhs       c8                           3208
    rhs       c9                           2506
    rhs       c10                          3031
    rhs       c11                          2270
    rhs       c12                          1039
    rhs       c13                          1786
    rhs       c14                          2512
    rhs       c15                          2191
    rhs       c16                          3101
    rhs       c17                          1362
    rhs       c18                          1024
    rhs       c19                          1675
    rhs       c20                           692
    rhs       c21                          1364
    rhs       c22                          1656
    rhs       c23                          3062
    rhs       c24                          2422
    rhs       c25                          1802
    rhs       c26                          1562
    rhs       c27                          2946
    rhs       c28                          1717
    rhs       c29                          3007
    rhs       c30                          2358
    rhs       c31                          1433
    rhs       c32                          2019
    rhs       c33                          1665
    rhs       c34                          3059
    rhs       c35                          1041
    rhs       c36                          2228
    rhs       c37                          2333
    rhs       c38                          2511
    rhs       c39                          1294
    rhs       c40                          2168
    rhs       c41                          3420
    rhs       c42                          2851
    rhs       c43                          2017
    rhs       c44                          1913
    rhs       c45                          2125
    rhs       c46                          2205
    rhs       c47                          2535
    rhs       c48                          1462
    rhs       c49                          2131
    rhs       c50                          1646
    rhs       c51                          2608
    rhs       c52                          1196
    rhs       c53                          1908
    rhs       c54                          1678
    rhs       c55                          2057
    rhs       c56                           906
    rhs       c57                          2916
    rhs       c58                          1156
    rhs       c59                          1259
    rhs       c60                          2429
    rhs       c61                          3160
    rhs       c62                          1587
    rhs       c63                          1098
    rhs       c64                          1986
    rhs       c65                          2067
    rhs       c66                          1494
    rhs       c67                          2371
    rhs       c68                          2439
    rhs       c69                          1907
    rhs       c70                          2701
BOUNDS
 LI bnd       x1        0
 LI bnd       x2        0
 LI bnd       x3        0
 LI bnd       x4        0
 LI bnd       x5        0
 LI bnd       x6        0
 LI bnd       x7        0
 LI bnd       x8        0
 LI bnd       x9        0
 LI bnd       x10       0
 LI bnd       x11       0
 LI bnd       x12       0
 LI bnd       x13       0
 LI bnd       x14       0
 LI bnd       x15       0
 LI bnd       x16       0
 LI bnd       x17       0
 LI bnd       x18       0
 LI bnd       x19       0
 LI bnd       x20       0
 LI bnd       x21       0
 LI bnd       x22       0
 LI bnd       x23       0
 LI bnd       x24       0
 LI bnd       x25       0
 LI bnd       x26       0
 LI bnd       x27       0
 LI bnd       x28       0
 LI bnd       x29       0
 LI bnd       x30       0
 LI bnd       x31       0
 LI bnd       x32       0
 LI bnd       x33       0
 LI bnd       x34       0
 LI bnd       x35       0
 LI bnd       x36       0
 LI bnd       x37       0
 LI bnd       x38       0
 LI bnd       x39       0
 LI bnd       x40       0
 LI bnd       x41       0
 LI bnd       x42       0
 LI bnd       x43       0
 LI bnd       x44       0
 LI bnd       x45       0
 LI bnd       x46       0
 LI bnd       x47       0
 LI bnd       x48       0
 LI bnd       x49       0
 LI bnd       x50       0
 LI bnd       x51       0
 LI bnd       x52       0
 LI bnd       x53       0
 LI bnd       x54       0
 LI bnd       x55       0
 LI bnd       x56       0
 LI bnd       x57       0
 LI bnd       x58       0
 LI bnd       x59       0
 LI bnd       x60       0
 LI bnd       x61       0
 LI bnd       x62       0
 LI bnd       x63       0
 LI bnd       x64       0
 LI bnd       x65       0
 LI bnd       x66       0
 LI bnd       x67       0
 LI bnd       x68       0
 LI bnd       x69       0
 LI bnd       x70       0
ENDATA
